User:   vi@vi-clevo
Date:   Mon Oct 21 18:40:58 2024
Arch:   x86_64
Pid:    4947
CWD:    /mnt/c/Users/vi/Desktop/Jellium/Pore/MOF-Jellium
Python: 3.12.3
gpaw:   /home/vi/miniconda3/envs/gpaw24/lib/python3.12/site-packages/gpaw
_gpaw:  /home/vi/miniconda3/envs/gpaw24/lib/python3.12/site-packages/
        _gpaw.cpython-312-x86_64-linux-gnu.so
ase:    /home/vi/miniconda3/envs/gpaw24/lib/python3.12/site-packages/ase (version 3.23.0)
numpy:  /home/vi/miniconda3/envs/gpaw24/lib/python3.12/site-packages/numpy (version 1.26.4)
scipy:  /home/vi/miniconda3/envs/gpaw24/lib/python3.12/site-packages/scipy (version 1.13.1)
units:  Angstrom and eV
cores: 1
OpenMP: True
OMP_NUM_THREADS: 1

Input parameters:
  background_charge: {charge: -12.0,
                      radius: 3.0}
  h: 0.2
  kpts: [2 2 2]
  mode: fd

System changes: positions, numbers, cell, pbc, initial_charges, initial_magmoms

Initialize ...

species:
  Zn:
    name: Zinc
    id: 5ebf863f442df07f995a1d0f0e5f6815
    Z: 30.0
    valence: 12
    core: 18
    charge: 0.0
    file: /home/vi/miniconda3/envs/gpaw24/share/gpaw/Zn.LDA.gz
    compensation charges: {type: gauss,
                           rc: 0.37,
                           lmax: 2}
    cutoffs: {filter: 2.14,
              core: 2.28}
    projectors:
      #              energy  rcut
      - 4s(2.00)    -6.218   1.286
      - 4p(0.00)    -1.230   1.270
      - 3d(10.00)   -10.426   1.180
      -  s          20.994   1.286
      -  p          25.981   1.270
      -  d          16.786   1.180

    # Using partial waves for Zn as LCAO basis

  O:
    name: Oxygen
    id: 9b9d51c344dea68c822856295a461509
    Z: 8.0
    valence: 6
    core: 2
    charge: 0.0
    file: /home/vi/miniconda3/envs/gpaw24/share/gpaw/O.LDA.gz
    compensation charges: {type: gauss,
                           rc: 0.21,
                           lmax: 2}
    cutoffs: {filter: 1.17,
              core: 0.83}
    projectors:
      #              energy  rcut
      - 2s(2.00)   -23.752   0.688
      - 2p(4.00)    -9.195   0.598
      -  s           3.459   0.688
      -  p          18.016   0.598
      -  d           0.000   0.619

[...]

  C:
    name: Carbon
    id: d60576a1f549371a163e72552ca58787
    Z: 6.0
    valence: 4
    core: 2
    charge: 0.0
    file: /home/vi/miniconda3/envs/gpaw24/share/gpaw/C.LDA.gz
    compensation charges: {type: gauss,
                           rc: 0.20,
                           lmax: 2}
    cutoffs: {filter: 1.14,
              core: 1.14}
    projectors:
      #              energy  rcut
      - 2s(2.00)   -13.639   0.635
      - 2p(2.00)    -5.414   0.635
      -  s          13.573   0.635
      -  p          21.797   0.635
      -  d           0.000   0.635

    # Using partial waves for C as LCAO basis

Reference energy: -365848.464770  # eV

Spin-paired calculation

Convergence criteria:
 Maximum [total energy] change in last 3 cyles: 0.0005 eV / valence electron
 Maximum integral of absolute [dens]ity change: 0.0001 electrons / valence electron
 Maximum integral of absolute [eigenst]ate change: 4e-08 eV^2 / valence electron
 Maximum number of scf [iter]ations: 333
 (Square brackets indicate name in SCF output, whereas a 'c' in
 the SCF output indicates the quantity has converged.)

Symmetries present (total): 2

  ( 1  0  0)  ( 1  0  0)
  ( 0  1  0)  ( 0  1  0)
  ( 0  0  1)  ( 0  0 -1)

8 k-points: 2 x 2 x 2 Monkhorst-Pack grid
2 k-points in the irreducible part of the Brillouin zone
       k-points in crystal coordinates                weights
   0:     0.25000000   -0.25000000    0.25000000          4/8
   1:     0.25000000    0.25000000    0.25000000          4/8

Occupation numbers: Fermi-Dirac:
  width: 0.1000  # eV

Eigensolver
   Davidson(niter=2)

Densities:
  Coarse grid: 56*56*32 grid
  Fine grid: 112*112*64 grid
  Total Charge: 0.000000

Density mixing:
  Method: separate
  Backend: pulay
  Linear mixing parameter: 0.05
  old densities: 5
  Damping of long wavelength oscillations: 50

Hamiltonian:
  XC and Coulomb potentials evaluated on a 112*112*64 grid
  Using the LDA Exchange-Correlation functional
  Interpolation: tri-quintic (5. degree polynomial)
  Poisson solver: FastPoissonSolver using
    Stencil: 8*3+1=25 point O(h^6) finite-difference Laplacian
    FFT axes: [0, 1, 2]
    FST axes: []

Total number of cores used: 1

Number of atoms: 54
Number of atomic orbitals: 246
Number of bands in calculation: 184
Number of valence electrons: 300.0
Bands to converge: occupied

... initialized

Initializing position-dependent things.

Density initialized from atomic densities
Creating initial wave functions:
  184 bands from LCAO basis set

                C   C          O      O
              C      C  O                  O
               C  CO                         O
                                               Zn
                 O  C      Zn  O      O    O
              C      C  O                  OC  C
               C   O                  O  C      C
                   O    O      O   Zn     C  OC     Zn
               ZnO                         O
                                            C   C
                   O                  O   C      C
                    Zn  O      O           C  C

Positions:
   0 Zn    -3.311508    5.745389    0.000000    ( 0.0000,  0.0000,  0.0000)
   1 Zn     0.008798   11.475067    0.000000    ( 0.0000,  0.0000,  0.0000)
   2 Zn     0.000000    0.000000    0.000000    ( 0.0000,  0.0000,  0.0000)
   3 Zn     9.654686    6.016570    3.370287    ( 0.0000,  0.0000,  0.0000)
   4 Zn     6.356848    0.273894    3.370287    ( 0.0000,  0.0000,  0.0000)
   5 Zn    12.999812    0.283685    3.370287    ( 0.0000,  0.0000,  0.0000)
   6 O      8.636875    4.323401    0.000000    ( 0.0000,  0.0000,  0.0000)
   7 O      7.208602    1.838281    0.000000    ( 0.0000,  0.0000,  0.0000)
   8 O     -2.008673    4.314104    0.000000    ( 0.0000,  0.0000,  0.0000)
   9 O      1.901801   11.072128    0.000000    ( 0.0000,  0.0000,  0.0000)
  10 O     -0.587371    1.851830    0.000000    ( 0.0000,  0.0000,  0.0000)
  11 O      4.736624   11.078265    0.000000    ( 0.0000,  0.0000,  0.0000)
  12 O     -0.588016    9.632534    0.000000    ( 0.0000,  0.0000,  0.0000)
  13 O     -2.009198    7.180271    0.000000    ( 0.0000,  0.0000,  0.0000)
  14 O      4.750180    0.416167    0.000000    ( 0.0000,  0.0000,  0.0000)
  15 O      8.640642    7.175099    0.000000    ( 0.0000,  0.0000,  0.0000)
  16 O      1.891483    0.423327    0.000000    ( 0.0000,  0.0000,  0.0000)
  17 O      7.214543    9.643842    0.000000    ( 0.0000,  0.0000,  0.0000)
  18 O      8.355932    4.576195    3.370287    ( 0.0000,  0.0000,  0.0000)
  19 O      6.946570    2.119197    3.370287    ( 0.0000,  0.0000,  0.0000)
  20 O     -2.293397    4.593675    3.370287    ( 0.0000,  0.0000,  0.0000)
  21 O      1.617223   11.340988    3.370287    ( 0.0000,  0.0000,  0.0000)
  22 O     -0.855644    2.129080    3.370287    ( 0.0000,  0.0000,  0.0000)
  23 O      4.475674   11.345654    3.370287    ( 0.0000,  0.0000,  0.0000)
  24 O     -0.849537    9.910979    3.370287    ( 0.0000,  0.0000,  0.0000)
  25 O     -2.287952    7.434145    3.370287    ( 0.0000,  0.0000,  0.0000)
  26 O      4.466378    0.684119    3.370287    ( 0.0000,  0.0000,  0.0000)
  27 O      8.358060    7.452912    3.370287    ( 0.0000,  0.0000,  0.0000)
  28 O      1.631011    0.690440    3.370287    ( 0.0000,  0.0000,  0.0000)
  29 O      6.946177    9.922632    3.370287    ( 0.0000,  0.0000,  0.0000)
  30 C      9.214720    3.172675    0.000000    ( 0.0000,  0.0000,  0.0000)
  31 C      8.493745    1.919129    0.000000    ( 0.0000,  0.0000,  0.0000)
  32 C     10.670784    3.171457    0.000000    ( 0.0000,  0.0000,  0.0000)
  33 C      9.225882    0.661801    0.000000    ( 0.0000,  0.0000,  0.0000)
  34 C     11.395239    1.920726    0.000000    ( 0.0000,  0.0000,  0.0000)
  35 C     10.671073    0.663491    0.000000    ( 0.0000,  0.0000,  0.0000)
  36 C     -1.868814    9.573602    0.000000    ( 0.0000,  0.0000,  0.0000)
  37 C     -2.593849    8.321940    0.000000    ( 0.0000,  0.0000,  0.0000)
  38 C     -2.593767   10.833929    0.000000    ( 0.0000,  0.0000,  0.0000)
  39 C     -4.045548    8.324400    0.000000    ( 0.0000,  0.0000,  0.0000)
  40 C     -4.038793   10.837032    0.000000    ( 0.0000,  0.0000,  0.0000)
  41 C     -4.767868    9.576418    0.000000    ( 0.0000,  0.0000,  0.0000)
  42 C      8.946957    3.437019    3.370287    ( 0.0000,  0.0000,  0.0000)
  43 C      8.227654    2.183266    3.370287    ( 0.0000,  0.0000,  0.0000)
  44 C     10.398915    3.442087    3.370287    ( 0.0000,  0.0000,  0.0000)
  45 C      8.957230    0.925915    3.370287    ( 0.0000,  0.0000,  0.0000)
  46 C     11.127158    2.192724    3.370287    ( 0.0000,  0.0000,  0.0000)
  47 C     10.402389    0.929271    3.370287    ( 0.0000,  0.0000,  0.0000)
  48 C     -2.135741    9.836383    3.370287    ( 0.0000,  0.0000,  0.0000)
  49 C     -2.862255    8.587422    3.370287    ( 0.0000,  0.0000,  0.0000)
  50 C     -2.862326   11.097606    3.370287    ( 0.0000,  0.0000,  0.0000)
  51 C     -4.317934    8.593168    3.370287    ( 0.0000,  0.0000,  0.0000)
  52 C     -4.307750   11.101927    3.370287    ( 0.0000,  0.0000,  0.0000)
  53 C     -5.037276    9.848415    3.370287    ( 0.0000,  0.0000,  0.0000)

Unit cell:
           periodic     x           y           z      points  spacing
  1. axis:    yes   13.266613    0.000000    0.000000    56     0.2052
  2. axis:    yes   -6.633418   11.492202    0.000000    56     0.2052
  3. axis:    yes    0.000000    0.000000    6.740573    32     0.2106

  Lengths:  13.266613  13.269248   6.740573
  Angles:   90.000000  90.000000 119.993985

Effective grid spacing dv^(1/3) = 0.2172

     iter     time        total  log10-change:
                         energy   eigst   dens
iter:   1 18:41:24 -1553.351730
iter:   2 18:41:43  -694.925699   +1.06  -0.50
iter:   3 18:42:02  -397.293463   +1.18  -0.65
iter:   4 18:42:29  -286.145039   +1.55  -0.77
iter:   5 18:42:48  -298.805827   +1.38  -0.88
iter:   6 18:43:07  -313.034837   +1.08  -0.97
iter:   7 18:43:26  -319.612429   +0.47  -0.99
iter:   8 18:43:46  -322.308656   +0.23  -0.99
iter:   9 18:44:07  -330.213018   +0.24  -1.01
iter:  10 18:44:27  -329.734850   -0.10  -1.00
iter:  11 18:44:51  -322.012590   -0.58  -1.00
iter:  12 18:45:10  -319.455334   -0.76  -1.03
iter:  13 18:45:32  -314.461392   -1.22  -1.05
iter:  14 18:45:51  -307.890877   -1.02  -1.10
iter:  15 18:46:13  -304.479498   -1.34  -1.19
iter:  16 18:46:34  -301.917219   -1.57  -1.27
iter:  17 18:46:49  -301.031530   -1.29  -1.33
iter:  18 18:47:04  -299.285297   -1.87  -1.48
iter:  19 18:47:19  -298.269247   -1.74  -1.50
iter:  20 18:47:34  -297.509778   -1.80  -1.61
iter:  21 18:47:49  -296.976459   -1.63  -1.68
iter:  22 18:48:04  -296.864835   -1.71  -1.86
iter:  23 18:48:19  -296.676384   -2.15  -2.01
iter:  24 18:48:34  -296.621959   -2.47  -2.13
iter:  25 18:48:49  -296.605129c  -3.02  -2.22
iter:  26 18:49:04  -296.522403c  -2.79  -2.26
iter:  27 18:49:19  -296.514586c  -3.04  -2.46
iter:  28 18:49:34  -296.510536c  -3.40  -2.57
iter:  29 18:49:49  -296.505379c  -3.42  -2.64
iter:  30 18:50:04  -296.505252c  -3.92  -2.84
iter:  31 18:50:19  -296.502522c  -4.28  -2.93
iter:  32 18:50:34  -296.501151c  -4.57  -2.99
iter:  33 18:50:50  -296.499472c  -4.27  -3.06
iter:  34 18:51:05  -296.498455c  -4.50  -3.23
iter:  35 18:51:20  -296.498595c  -4.96  -3.32
iter:  36 18:51:35  -296.498734c  -5.04  -3.39
iter:  37 18:51:50  -296.498091c  -5.36  -3.45
iter:  38 18:52:05  -296.498256c  -5.43  -3.59
iter:  39 18:52:31  -296.498509c  -6.24  -3.73
iter:  40 18:52:46  -296.498411c  -6.24  -3.77
iter:  41 18:53:01  -296.498599c  -6.50  -3.83
iter:  42 18:53:16  -296.498570c  -6.53  -3.88
iter:  43 18:53:31  -296.498745c  -6.43  -3.96
iter:  44 18:53:47  -296.498733c  -6.61  -4.09c
iter:  45 18:54:02  -296.498710c  -6.65  -4.23c
iter:  46 18:54:17  -296.498763c  -6.68  -4.39c
iter:  47 18:54:32  -296.498772c  -7.16  -4.53c
iter:  48 18:54:47  -296.498773c  -7.49c -4.59c

Converged after 48 iterations.

Dipole moment: (-20.301942, 1.550483, -77.633999) |e|*Ang

Energy contributions relative to reference atoms: (reference = -365848.464770)

Kinetic:       +157.560180
Potential:     -211.184922
External:        +0.000000
XC:            -270.698647
Entropy (-ST):   -0.679159
Local:          +28.164196
SIC:             +0.000000
Free energy:   -296.838352
Extrapolated:  -296.498773

Showing all kpts
 Kpt  Band  Eigenvalues  Occupancy
  0   148     -6.17695    1.73247
  0   149     -5.96570    0.87838
  0   150     -5.92329    0.67767
  0   151     -5.89455    0.55540

  1   148     -6.09846    1.49419
  1   149     -6.01900    1.14329
  1   150     -5.96212    0.86078
  1   151     -5.89608    0.56153

Fermi level: -5.99014

Date: Mon Oct 21 18:54:55 2024