User:   vi@vi-clevo
Date:   Sat Oct 19 09:23:57 2024
Arch:   x86_64
Pid:    82620
CWD:    /mnt/c/Users/vi/Desktop/Jellium/Pore/MOF
Python: 3.12.3
gpaw:   /home/vi/miniconda3/envs/gpaw24/lib/python3.12/site-packages/gpaw
_gpaw:  /home/vi/miniconda3/envs/gpaw24/lib/python3.12/site-packages/
        _gpaw.cpython-312-x86_64-linux-gnu.so
ase:    /home/vi/miniconda3/envs/gpaw24/lib/python3.12/site-packages/ase (version 3.23.0)
numpy:  /home/vi/miniconda3/envs/gpaw24/lib/python3.12/site-packages/numpy (version 1.26.4)
scipy:  /home/vi/miniconda3/envs/gpaw24/lib/python3.12/site-packages/scipy (version 1.13.1)
units:  Angstrom and eV
cores: 1
OpenMP: True
OMP_NUM_THREADS: 1

Input parameters:
  h: 0.2
  kpts: [2 2 2]
  mode: lcao
  xc: PBE

System changes: positions, numbers, cell, pbc, initial_charges, initial_magmoms

Initialize ...

species:
  Zn:
    name: Zinc
    id: 9da902d12d12265ad8e0029a903fe3c0
    Z: 30.0
    valence: 12
    core: 18
    charge: 0.0
    file: /home/vi/miniconda3/envs/gpaw24/share/gpaw/Zn.PBE.gz
    compensation charges: {type: gauss,
                           rc: 0.37,
                           lmax: 2}
    cutoffs: {filter: 2.14,
              core: 2.28}
    projectors:
      #              energy  rcut
      - 4s(2.00)    -5.977   1.286
      - 4p(0.00)    -1.117   1.270
      - 3d(10.00)   -10.142   1.180
      -  s          21.234   1.286
      -  p          26.095   1.270
      -  d          17.070   1.180

    # Using partial waves for Zn as LCAO basis

  O:
    name: Oxygen
    id: 32ecd46bf208036f09c70b0ec9a88b78
    Z: 8.0
    valence: 6
    core: 2
    charge: 0.0
    file: /home/vi/miniconda3/envs/gpaw24/share/gpaw/O.PBE.gz
    compensation charges: {type: gauss,
                           rc: 0.21,
                           lmax: 2}
    cutoffs: {filter: 1.17,
              core: 0.83}
    projectors:
      #              energy  rcut
      - 2s(2.00)   -23.961   0.688
      - 2p(4.00)    -9.029   0.598
      -  s           3.251   0.688
      -  p          18.182   0.598
      -  d           0.000   0.619

[...]

  C:
    name: Carbon
    id: 4aa54d4b901d75f77cc0ea3eec22967b
    Z: 6.0
    valence: 4
    core: 2
    charge: 0.0
    file: /home/vi/miniconda3/envs/gpaw24/share/gpaw/C.PBE.gz
    compensation charges: {type: gauss,
                           rc: 0.20,
                           lmax: 2}
    cutoffs: {filter: 1.14,
              core: 1.14}
    projectors:
      #              energy  rcut
      - 2s(2.00)   -13.751   0.635
      - 2p(2.00)    -5.284   0.635
      -  s          13.461   0.635
      -  p          21.927   0.635
      -  d           0.000   0.635

    # Using partial waves for C as LCAO basis

Reference energy: -366811.489916  # eV

Spin-paired calculation

Convergence criteria:
 Maximum [total energy] change in last 3 cyles: 0.0005 eV / valence electron
 Maximum integral of absolute [dens]ity change: 0.0001 electrons / valence electron
 Maximum integral of absolute [eigenst]ate change: 4e-08 eV^2 / valence electron
 Maximum number of scf [iter]ations: 333
 (Square brackets indicate name in SCF output, whereas a 'c' in
 the SCF output indicates the quantity has converged.)

Symmetries present (total): 2

  ( 1  0  0)  ( 1  0  0)
  ( 0  1  0)  ( 0  1  0)
  ( 0  0  1)  ( 0  0 -1)

8 k-points: 2 x 2 x 2 Monkhorst-Pack grid
2 k-points in the irreducible part of the Brillouin zone
       k-points in crystal coordinates                weights
   0:     0.25000000   -0.25000000    0.25000000          4/8
   1:     0.25000000    0.25000000    0.25000000          4/8

Occupation numbers: Fermi-Dirac:
  width: 0.1000  # eV

Eigensolver
   LCAO using direct dense diagonalizer

Densities:
  Coarse grid: 56*56*32 grid
  Fine grid: 112*112*64 grid
  Total Charge: 0.000000

Density mixing:
  Method: separate
  Backend: pulay
  Linear mixing parameter: 0.05
  old densities: 5
  Damping of long wavelength oscillations: 50

Hamiltonian:
  XC and Coulomb potentials evaluated on a 112*112*64 grid
  Using the PBE Exchange-Correlation functional
  Interpolation: tri-quintic (5. degree polynomial)
  Poisson solver: FastPoissonSolver using
    Stencil: 8*3+1=25 point O(h^6) finite-difference Laplacian
    FFT axes: [0, 1, 2]
    FST axes: []

XC parameters: PBE with 2 nearest neighbor stencil

Total number of cores used: 1

Number of atoms: 54
Number of atomic orbitals: 246
Number of bands in calculation: 192
Number of valence electrons: 312
Bands to converge: occupied

... initialized

Initializing position-dependent things.

Density initialized from atomic densities

                C   C          O      O
              C      C  O                  O
               C  CO                         O
                                               Zn
                 O  C      Zn  O      O    O
              C      C  O                  OC  C
               C   O                  O  C      C
                   O    O      O   Zn     C  OC     Zn
               ZnO                         O
                                            C   C
                   O                  O   C      C
                    Zn  O      O           C  C

Positions:
   0 Zn     1.725767    5.745389    0.000000    ( 0.0000,  0.0000,  0.0000)
   1 Zn     5.046073   11.475067    0.000000    ( 0.0000,  0.0000,  0.0000)
   2 Zn     5.037276    0.000000    0.000000    ( 0.0000,  0.0000,  0.0000)
   3 Zn    14.691962    6.016570    3.370287    ( 0.0000,  0.0000,  0.0000)
   4 Zn    11.394123    0.273894    3.370287    ( 0.0000,  0.0000,  0.0000)
   5 Zn    18.037088    0.283685    3.370287    ( 0.0000,  0.0000,  0.0000)
   6 O     13.674150    4.323401    0.000000    ( 0.0000,  0.0000,  0.0000)
   7 O     12.245878    1.838281    0.000000    ( 0.0000,  0.0000,  0.0000)
   8 O      3.028602    4.314104    0.000000    ( 0.0000,  0.0000,  0.0000)
   9 O      6.939077   11.072128    0.000000    ( 0.0000,  0.0000,  0.0000)
  10 O      4.449905    1.851830    0.000000    ( 0.0000,  0.0000,  0.0000)
  11 O      9.773900   11.078265    0.000000    ( 0.0000,  0.0000,  0.0000)
  12 O      4.449259    9.632534    0.000000    ( 0.0000,  0.0000,  0.0000)
  13 O      3.028077    7.180271    0.000000    ( 0.0000,  0.0000,  0.0000)
  14 O      9.787455    0.416167    0.000000    ( 0.0000,  0.0000,  0.0000)
  15 O     13.677917    7.175099    0.000000    ( 0.0000,  0.0000,  0.0000)
  16 O      6.928759    0.423327    0.000000    ( 0.0000,  0.0000,  0.0000)
  17 O     12.251819    9.643842    0.000000    ( 0.0000,  0.0000,  0.0000)
  18 O     13.393208    4.576195    3.370287    ( 0.0000,  0.0000,  0.0000)
  19 O     11.983846    2.119197    3.370287    ( 0.0000,  0.0000,  0.0000)
  20 O      2.743878    4.593675    3.370287    ( 0.0000,  0.0000,  0.0000)
  21 O      6.654499   11.340988    3.370287    ( 0.0000,  0.0000,  0.0000)
  22 O      4.181631    2.129080    3.370287    ( 0.0000,  0.0000,  0.0000)
  23 O      9.512950   11.345654    3.370287    ( 0.0000,  0.0000,  0.0000)
  24 O      4.187738    9.910979    3.370287    ( 0.0000,  0.0000,  0.0000)
  25 O      2.749323    7.434145    3.370287    ( 0.0000,  0.0000,  0.0000)
  26 O      9.503653    0.684119    3.370287    ( 0.0000,  0.0000,  0.0000)
  27 O     13.395336    7.452912    3.370287    ( 0.0000,  0.0000,  0.0000)
  28 O      6.668286    0.690440    3.370287    ( 0.0000,  0.0000,  0.0000)
  29 O     11.983452    9.922632    3.370287    ( 0.0000,  0.0000,  0.0000)
  30 C     14.251995    3.172675    0.000000    ( 0.0000,  0.0000,  0.0000)
  31 C     13.531020    1.919129    0.000000    ( 0.0000,  0.0000,  0.0000)
  32 C     15.708059    3.171457    0.000000    ( 0.0000,  0.0000,  0.0000)
  33 C     14.263157    0.661801    0.000000    ( 0.0000,  0.0000,  0.0000)
  34 C     16.432515    1.920726    0.000000    ( 0.0000,  0.0000,  0.0000)
  35 C     15.708349    0.663491    0.000000    ( 0.0000,  0.0000,  0.0000)
  36 C      3.168461    9.573602    0.000000    ( 0.0000,  0.0000,  0.0000)
  37 C      2.443426    8.321940    0.000000    ( 0.0000,  0.0000,  0.0000)
  38 C      2.443508   10.833929    0.000000    ( 0.0000,  0.0000,  0.0000)
  39 C      0.991727    8.324400    0.000000    ( 0.0000,  0.0000,  0.0000)
  40 C      0.998482   10.837032    0.000000    ( 0.0000,  0.0000,  0.0000)
  41 C      0.269408    9.576418    0.000000    ( 0.0000,  0.0000,  0.0000)
  42 C     13.984233    3.437019    3.370287    ( 0.0000,  0.0000,  0.0000)
  43 C     13.264929    2.183266    3.370287    ( 0.0000,  0.0000,  0.0000)
  44 C     15.436191    3.442087    3.370287    ( 0.0000,  0.0000,  0.0000)
  45 C     13.994506    0.925915    3.370287    ( 0.0000,  0.0000,  0.0000)
  46 C     16.164434    2.192724    3.370287    ( 0.0000,  0.0000,  0.0000)
  47 C     15.439664    0.929271    3.370287    ( 0.0000,  0.0000,  0.0000)
  48 C      2.901534    9.836383    3.370287    ( 0.0000,  0.0000,  0.0000)
  49 C      2.175020    8.587422    3.370287    ( 0.0000,  0.0000,  0.0000)
  50 C      2.174950   11.097606    3.370287    ( 0.0000,  0.0000,  0.0000)
  51 C      0.719341    8.593168    3.370287    ( 0.0000,  0.0000,  0.0000)
  52 C      0.729526   11.101927    3.370287    ( 0.0000,  0.0000,  0.0000)
  53 C     -0.000000    9.848415    3.370287    ( 0.0000,  0.0000,  0.0000)

Unit cell:
           periodic     x           y           z      points  spacing
  1. axis:    yes   13.266613    0.000000    0.000000    56     0.2052
  2. axis:    yes   -6.633418   11.492202    0.000000    56     0.2052
  3. axis:    yes    0.000000    0.000000    6.740573    32     0.2106

  Lengths:  13.266613  13.269248   6.740573
  Angles:   90.000000  90.000000 119.993985

Effective grid spacing dv^(1/3) = 0.2172

     iter     time        total  log10-change:
                         energy   eigst   dens
iter:   1 09:24:01  -301.995925        c
iter:   2 09:24:06  -294.810765        c -0.99
iter:   3 09:24:11  -276.671064        c -1.04
iter:   4 09:24:15  -285.398115        c -1.34
iter:   5 09:24:20  -271.784269        c -1.18
iter:   6 09:24:25  -271.787042        c -1.77
iter:   7 09:24:30  -270.699634        c -1.77
iter:   8 09:24:35  -270.567368        c -2.19
iter:   9 09:24:40  -270.487863        c -2.31
iter:  10 09:24:45  -270.479849c       c -2.86
iter:  11 09:24:49  -270.479367c       c -2.97
iter:  12 09:24:54  -270.478809c       c -3.00
iter:  13 09:24:59  -270.478122c       c -3.05
iter:  14 09:25:03  -270.477935c       c -3.28
iter:  15 09:25:08  -270.477422c       c -3.34
iter:  16 09:25:13  -270.477461c       c -3.77
iter:  17 09:25:17  -270.477625c       c -3.87
iter:  18 09:25:22  -270.477645c       c -4.12c

Converged after 18 iterations.

Dipole moment: (-34.345360, 16.737145, -79.024084) |e|*Ang

Energy contributions relative to reference atoms: (reference = -366811.489916)

Kinetic:       +214.035975
Potential:     -175.222437
External:        +0.000000
XC:            -330.603964
Entropy (-ST):   -0.306121
Local:          +21.465841
SIC:             +0.000000
Free energy:   -270.630705
Extrapolated:  -270.477645

Showing all kpts
 Kpt  Band  Eigenvalues  Occupancy
  0   154     -2.27961    1.95130
  0   155     -2.10342    1.74623
  0   156     -1.69290    0.20378
  0   157     -1.65952    0.15029

  1   154     -2.25386    1.93745
  1   155     -1.97152    1.29579
  1   156     -1.79053    0.46291
  1   157     -1.63859    0.12365

Fermi level: -1.91054

Gap: 0.181 eV
Transition (v -> c):
  (s=0, k=1, n=155, [[0.25, 0.25, 0.25]]) -> (s=0, k=1, n=156, [[0.25, 0.25, 0.25]])
No difference between direct/indirect transitions
Writing to mof.gpw (mode='')