User:   vi@vi-clevo
Date:   Fri Oct 18 16:32:59 2024
Arch:   x86_64
Pid:    12318
CWD:    /mnt/c/Users/vi/Desktop/Jellium/Pore/MOF
Python: 3.12.3
gpaw:   /home/vi/miniconda3/envs/gpaw24/lib/python3.12/site-packages/gpaw
_gpaw:  /home/vi/miniconda3/envs/gpaw24/lib/python3.12/site-packages/
        _gpaw.cpython-312-x86_64-linux-gnu.so
ase:    /home/vi/miniconda3/envs/gpaw24/lib/python3.12/site-packages/ase (version 3.23.0)
numpy:  /home/vi/miniconda3/envs/gpaw24/lib/python3.12/site-packages/numpy (version 1.26.4)
scipy:  /home/vi/miniconda3/envs/gpaw24/lib/python3.12/site-packages/scipy (version 1.13.1)
units:  Angstrom and eV
cores: 1
OpenMP: True
OMP_NUM_THREADS: 1

Input parameters:
  h: 0.2
  kpts: [2 2 2]
  mode: fd

System changes: positions, numbers, cell, pbc, initial_charges, initial_magmoms

Initialize ...

species:
  Zn:
    name: Zinc
    id: 5ebf863f442df07f995a1d0f0e5f6815
    Z: 30.0
    valence: 12
    core: 18
    charge: 0.0
    file: /home/vi/miniconda3/envs/gpaw24/share/gpaw/Zn.LDA.gz
    compensation charges: {type: gauss,
                           rc: 0.37,
                           lmax: 2}
    cutoffs: {filter: 2.14,
              core: 2.28}
    projectors:
      #              energy  rcut
      - 4s(2.00)    -6.218   1.286
      - 4p(0.00)    -1.230   1.270
      - 3d(10.00)   -10.426   1.180
      -  s          20.994   1.286
      -  p          25.981   1.270
      -  d          16.786   1.180

    # Using partial waves for Zn as LCAO basis

  O:
    name: Oxygen
    id: 9b9d51c344dea68c822856295a461509
    Z: 8.0
    valence: 6
    core: 2
    charge: 0.0
    file: /home/vi/miniconda3/envs/gpaw24/share/gpaw/O.LDA.gz
    compensation charges: {type: gauss,
                           rc: 0.21,
                           lmax: 2}
    cutoffs: {filter: 1.17,
              core: 0.83}
    projectors:
      #              energy  rcut
      - 2s(2.00)   -23.752   0.688
      - 2p(4.00)    -9.195   0.598
      -  s           3.459   0.688
      -  p          18.016   0.598
      -  d           0.000   0.619

[...]

  C:
    name: Carbon
    id: d60576a1f549371a163e72552ca58787
    Z: 6.0
    valence: 4
    core: 2
    charge: 0.0
    file: /home/vi/miniconda3/envs/gpaw24/share/gpaw/C.LDA.gz
    compensation charges: {type: gauss,
                           rc: 0.20,
                           lmax: 2}
    cutoffs: {filter: 1.14,
              core: 1.14}
    projectors:
      #              energy  rcut
      - 2s(2.00)   -13.639   0.635
      - 2p(2.00)    -5.414   0.635
      -  s          13.573   0.635
      -  p          21.797   0.635
      -  d           0.000   0.635

    # Using partial waves for C as LCAO basis

Reference energy: -365848.464770  # eV

Spin-paired calculation

Convergence criteria:
 Maximum [total energy] change in last 3 cyles: 0.0005 eV / valence electron
 Maximum integral of absolute [dens]ity change: 0.0001 electrons / valence electron
 Maximum integral of absolute [eigenst]ate change: 4e-08 eV^2 / valence electron
 Maximum number of scf [iter]ations: 333
 (Square brackets indicate name in SCF output, whereas a 'c' in
 the SCF output indicates the quantity has converged.)

Symmetries present (total): 2

  ( 1  0  0)  ( 1  0  0)
  ( 0  1  0)  ( 0  1  0)
  ( 0  0  1)  ( 0  0 -1)

8 k-points: 2 x 2 x 2 Monkhorst-Pack grid
2 k-points in the irreducible part of the Brillouin zone
       k-points in crystal coordinates                weights
   0:     0.25000000   -0.25000000    0.25000000          4/8
   1:     0.25000000    0.25000000    0.25000000          4/8

Occupation numbers: Fermi-Dirac:
  width: 0.1000  # eV

Eigensolver
   Davidson(niter=2)

Densities:
  Coarse grid: 56*56*32 grid
  Fine grid: 112*112*64 grid
  Total Charge: 0.000000

Density mixing:
  Method: separate
  Backend: pulay
  Linear mixing parameter: 0.05
  old densities: 5
  Damping of long wavelength oscillations: 50

Hamiltonian:
  XC and Coulomb potentials evaluated on a 112*112*64 grid
  Using the LDA Exchange-Correlation functional
  Interpolation: tri-quintic (5. degree polynomial)
  Poisson solver: FastPoissonSolver using
    Stencil: 8*3+1=25 point O(h^6) finite-difference Laplacian
    FFT axes: [0, 1, 2]
    FST axes: []

Total number of cores used: 1

Number of atoms: 54
Number of atomic orbitals: 246
Number of bands in calculation: 192
Number of valence electrons: 312
Bands to converge: occupied

... initialized

Initializing position-dependent things.

Density initialized from atomic densities
Creating initial wave functions:
  192 bands from LCAO basis set

                C   C          O      O
              C      C  O                  O
               C  CO                         O
                                               Zn
                 O  C      Zn  O      O    O
              C      C  O                  OC  C
               C   O                  O  C      C
                   O    O      O   Zn     C  OC     Zn
               ZnO                         O
                                            C   C
                   O                  O   C      C
                    Zn  O      O           C  C

Positions:
   0 Zn     1.725767    5.745389    0.000000    ( 0.0000,  0.0000,  0.0000)
   1 Zn     5.046073   11.475067    0.000000    ( 0.0000,  0.0000,  0.0000)
   2 Zn     5.037276    0.000000    0.000000    ( 0.0000,  0.0000,  0.0000)
   3 Zn    14.691962    6.016570    3.370287    ( 0.0000,  0.0000,  0.0000)
   4 Zn    11.394123    0.273894    3.370287    ( 0.0000,  0.0000,  0.0000)
   5 Zn    18.037088    0.283685    3.370287    ( 0.0000,  0.0000,  0.0000)
   6 O     13.674150    4.323401    0.000000    ( 0.0000,  0.0000,  0.0000)
   7 O     12.245878    1.838281    0.000000    ( 0.0000,  0.0000,  0.0000)
   8 O      3.028602    4.314104    0.000000    ( 0.0000,  0.0000,  0.0000)
   9 O      6.939077   11.072128    0.000000    ( 0.0000,  0.0000,  0.0000)
  10 O      4.449905    1.851830    0.000000    ( 0.0000,  0.0000,  0.0000)
  11 O      9.773900   11.078265    0.000000    ( 0.0000,  0.0000,  0.0000)
  12 O      4.449259    9.632534    0.000000    ( 0.0000,  0.0000,  0.0000)
  13 O      3.028077    7.180271    0.000000    ( 0.0000,  0.0000,  0.0000)
  14 O      9.787455    0.416167    0.000000    ( 0.0000,  0.0000,  0.0000)
  15 O     13.677917    7.175099    0.000000    ( 0.0000,  0.0000,  0.0000)
  16 O      6.928759    0.423327    0.000000    ( 0.0000,  0.0000,  0.0000)
  17 O     12.251819    9.643842    0.000000    ( 0.0000,  0.0000,  0.0000)
  18 O     13.393208    4.576195    3.370287    ( 0.0000,  0.0000,  0.0000)
  19 O     11.983846    2.119197    3.370287    ( 0.0000,  0.0000,  0.0000)
  20 O      2.743878    4.593675    3.370287    ( 0.0000,  0.0000,  0.0000)
  21 O      6.654499   11.340988    3.370287    ( 0.0000,  0.0000,  0.0000)
  22 O      4.181631    2.129080    3.370287    ( 0.0000,  0.0000,  0.0000)
  23 O      9.512950   11.345654    3.370287    ( 0.0000,  0.0000,  0.0000)
  24 O      4.187738    9.910979    3.370287    ( 0.0000,  0.0000,  0.0000)
  25 O      2.749323    7.434145    3.370287    ( 0.0000,  0.0000,  0.0000)
  26 O      9.503653    0.684119    3.370287    ( 0.0000,  0.0000,  0.0000)
  27 O     13.395336    7.452912    3.370287    ( 0.0000,  0.0000,  0.0000)
  28 O      6.668286    0.690440    3.370287    ( 0.0000,  0.0000,  0.0000)
  29 O     11.983452    9.922632    3.370287    ( 0.0000,  0.0000,  0.0000)
  30 C     14.251995    3.172675    0.000000    ( 0.0000,  0.0000,  0.0000)
  31 C     13.531020    1.919129    0.000000    ( 0.0000,  0.0000,  0.0000)
  32 C     15.708059    3.171457    0.000000    ( 0.0000,  0.0000,  0.0000)
  33 C     14.263157    0.661801    0.000000    ( 0.0000,  0.0000,  0.0000)
  34 C     16.432515    1.920726    0.000000    ( 0.0000,  0.0000,  0.0000)
  35 C     15.708349    0.663491    0.000000    ( 0.0000,  0.0000,  0.0000)
  36 C      3.168461    9.573602    0.000000    ( 0.0000,  0.0000,  0.0000)
  37 C      2.443426    8.321940    0.000000    ( 0.0000,  0.0000,  0.0000)
  38 C      2.443508   10.833929    0.000000    ( 0.0000,  0.0000,  0.0000)
  39 C      0.991727    8.324400    0.000000    ( 0.0000,  0.0000,  0.0000)
  40 C      0.998482   10.837032    0.000000    ( 0.0000,  0.0000,  0.0000)
  41 C      0.269408    9.576418    0.000000    ( 0.0000,  0.0000,  0.0000)
  42 C     13.984233    3.437019    3.370287    ( 0.0000,  0.0000,  0.0000)
  43 C     13.264929    2.183266    3.370287    ( 0.0000,  0.0000,  0.0000)
  44 C     15.436191    3.442087    3.370287    ( 0.0000,  0.0000,  0.0000)
  45 C     13.994506    0.925915    3.370287    ( 0.0000,  0.0000,  0.0000)
  46 C     16.164434    2.192724    3.370287    ( 0.0000,  0.0000,  0.0000)
  47 C     15.439664    0.929271    3.370287    ( 0.0000,  0.0000,  0.0000)
  48 C      2.901534    9.836383    3.370287    ( 0.0000,  0.0000,  0.0000)
  49 C      2.175020    8.587422    3.370287    ( 0.0000,  0.0000,  0.0000)
  50 C      2.174950   11.097606    3.370287    ( 0.0000,  0.0000,  0.0000)
  51 C      0.719341    8.593168    3.370287    ( 0.0000,  0.0000,  0.0000)
  52 C      0.729526   11.101927    3.370287    ( 0.0000,  0.0000,  0.0000)
  53 C     -0.000000    9.848415    3.370287    ( 0.0000,  0.0000,  0.0000)

Unit cell:
           periodic     x           y           z      points  spacing
  1. axis:    yes   13.266613    0.000000    0.000000    56     0.2052
  2. axis:    yes   -6.633418   11.492202    0.000000    56     0.2052
  3. axis:    yes    0.000000    0.000000    6.740573    32     0.2106

  Lengths:  13.266613  13.269248   6.740573
  Angles:   90.000000  90.000000 119.993985

Effective grid spacing dv^(1/3) = 0.2172

     iter     time        total  log10-change:
                         energy   eigst   dens
iter:   1 16:35:49  -463.755712
iter:   2 16:39:10  -460.955603   +0.40  -0.94
iter:   3 16:41:40  -445.557226   +0.05  -0.97
iter:   4 16:46:08  -442.257835   -0.34  -1.19
iter:   5 16:48:42  -440.189611   -0.70  -1.32
iter:   6 16:51:44  -440.794229   -0.77  -1.59
iter:   7 16:54:55  -439.714946   -1.17  -1.67
iter:   8 16:58:39  -439.397990   -1.38  -1.89
iter:   9 17:00:42  -439.282347   -2.33  -2.31
iter:  10 17:04:09  -439.224732   -2.66  -2.32
iter:  11 17:08:58  -439.223799c  -2.92  -2.58
iter:  12 17:12:42  -439.226296c  -2.97  -2.63
iter:  13 17:15:37  -439.217478c  -3.06  -2.77
iter:  14 17:20:07  -439.217017c  -3.75  -2.95
iter:  15 17:24:51  -439.216886c  -3.89  -3.16
iter:  16 17:27:36  -439.213772c  -4.01  -3.31
iter:  17 17:30:51  -439.213776c  -4.67  -3.57
iter:  18 17:35:29  -439.213641c  -4.70  -3.73
iter:  19 17:37:52  -439.213548c  -5.01  -3.84
iter:  20 17:40:43  -439.213578c  -5.56  -3.84
iter:  21 17:43:18  -439.213555c  -6.09  -3.97
iter:  22 17:46:56  -439.213568c  -6.26  -3.99
iter:  23 17:50:27  -439.213626c  -6.25  -4.01c
iter:  24 17:55:04  -439.213604c  -6.95  -4.41c
iter:  25 17:58:33  -439.213606c  -7.60c -4.64c

Converged after 25 iterations.

Dipole moment: (-35.524490, 19.907924, -77.035031) |e|*Ang

Energy contributions relative to reference atoms: (reference = -365848.464770)

Kinetic:       +517.684921
Potential:     -548.130267
External:        +0.000000
XC:            -437.591889
Entropy (-ST):   -0.354375
Local:          +29.000816
SIC:             +0.000000
Free energy:   -439.390794
Extrapolated:  -439.213606

Showing all kpts
 Kpt  Band  Eigenvalues  Occupancy
  0   154     -1.58012    1.84902
  0   155     -1.47246    1.61337
  0   156     -1.16537    0.32433
  0   157     -1.13736    0.25520

  1   154     -1.56923    1.83309
  1   155     -1.39015    1.29384
  1   156     -1.24793    0.61294
  1   157     -1.11127    0.20253

Fermi level: -1.32959

Gap: 0.142 eV
Transition (v -> c):
  (s=0, k=1, n=155, [[0.25, 0.25, 0.25]]) -> (s=0, k=1, n=156, [[0.25, 0.25, 0.25]])
No difference between direct/indirect transitions
Writing to mof.gpw (mode='')